nNurses = 81;
nHours = 27;
minHours = 6;
maxHours = 18;
maxConsec = 9;
maxPresence = 22;
demand = [43, 46, 50, 49, 48, 44, 43, 47, 44, 47, 47, 49, 48, 46, 42, 40, 45, 48, 47, 42, 43, 43, 43, 41, 38, 34, 29];
